9283.0
1 1 1 1 1 1 0 1 0 1 
3 0 3 4 2 9 5 5 3 7 7 4 1 9 9 9 9 2 5 3 0 0 0 4 0 4 7 4 4 7 7 7 3 3 3 5 9 9 0 0 0 9 9 1 5 5 5 5 5 3 3 5 4 4 0 0 9 4 2 2 9 7 7 7 3 3 4 4 7 7 3 0 0 0 0 4 4 3 3 4 3 5 2 2 2 2 1 5 2 7 9 9 2 2 1 2 1 9 2 1 